\* Problem: Unknown *\

Maximize
 obj: + xp_0_0 + xp_0_1 + xp_0_2 + xp_0_3 + xp_0_4 + xp_0_5 + xp_0_6
 + xp_1_0 + xp_1_1 + xp_2_0 + xp_2_1 + xp_2_2 + xp_2_3 + xp_2_4 + xp_3_0
 + xp_3_1 + xp_3_2 + xp_3_3 + xp_4_0 + xp_5_0 + xp_5_1 + xp_5_2 + xp_6_0
 + xp_6_1 + xp_6_2 + xp_7_0 + xp_7_1 + xp_8_0 + xp_8_1 + xp_9_0
 + xp_10_0 + xp_11_0 + xp_11_1 + xp_11_2 + xp_11_3 + xp_12_0 + xp_13_0
 + xp_13_1 + xp_14_0 + xp_14_1 + xp_15_0 + xp_16_0 + xp_16_1 + xp_17_0
 + xp_17_1 + xp_17_2 + xp_17_3 + xp_17_4 + xp_17_5 + xp_18_0 + xp_18_1
 + xp_18_2 + xp_18_3 + xp_18_4 + xp_19_0 + xp_19_1 + xp_19_2 + xp_19_3
 + xp_19_4 + xp_20_0 + xp_20_1 + xp_20_2 + xp_20_3 + xp_21_0 + xp_21_1
 + xp_21_2 + xp_21_3 + xp_22_0 + xp_22_1 + xp_22_2 + xp_22_3 + xp_22_4
 + xp_22_5 + xp_22_6 + xp_23_0 + xp_23_1 + xp_23_2 + xp_23_3 + xp_23_4
 + xp_23_5

Subject To
 r_1: 0 xp_0_0 <= 30
 r_2: + xp_23_3 + xp_18_1 + xp_17_4 + xp_5_2 + xp_2_2
 <= 28.8106343283582
 r_3: + xp_23_5 + xp_21_3 + xp_18_3 + xp_17_3 + xp_6_2 <= 30
 r_4: + xp_18_4 + xp_17_2 + xp_15_0 <= 30
 r_5: + xp_18_0 <= 27.5681198910082
 r_6: + xp_18_2 <= 30
 r_7: + xp_20_3 <= 30
 r_8: + xp_23_2 + xp_22_2 + xp_11_1 + xp_6_1 + xp_5_1 + xp_3_3 + xp_3_2
 + xp_2_3 <= 28.8106343283582
 r_9: + xp_23_4 + xp_22_3 + xp_11_3 + xp_3_1 <= 30
 r_10: + xp_3_0 <= 30
 r_11: + xp_18_2 + xp_11_2 <= 27.5681198910082
 r_12: + xp_11_0 <= 30
 r_13: 0 xp_0_0 <= 30
 r_14: + xp_21_2 + xp_14_0 + xp_0_6 + xp_0_1 <= 28.8106343283582
 r_15: + xp_21_0 + xp_19_4 <= 30
 r_16: + xp_22_1 + xp_21_1 + xp_0_5 + xp_0_3 + xp_0_2 <= 30
 r_17: + xp_0_0 <= 27.5681198910082
 r_18: + xp_21_3 + xp_4_0 <= 30
 r_19: + xp_19_0 <= 30
 r_20: + xp_19_3 + xp_19_2 + xp_19_1 + xp_14_1 + xp_0_4 <= 30
 r_21: + xp_20_1 <= 28.8106343283582
 r_22: + xp_21_2 + xp_7_1 <= 28.8106343283582
 r_23: + xp_22_5 + xp_22_2 + xp_17_4 + xp_3_2 <= 28.8106343283582
 r_24: + xp_23_3 + xp_23_2 + xp_6_1 + xp_3_3 + xp_0_6 + xp_0_4
 <= 29.4574468085106
 r_25: 0 xp_0_0 <= 28.8106343283582
 r_26: + xp_18_1 + xp_0_1 <= 27.5681198910082
 r_27: + xp_11_1 <= 28.8106343283582
 r_28: + xp_19_2 <= 28.8106343283582
 r_29: + xp_20_2 <= 30
 r_30: + xp_2_0 <= 28.8106343283582
 r_31: + xp_23_5 + xp_23_4 + xp_22_3 + xp_18_3 + xp_17_3 + xp_6_2
 + xp_3_1 + xp_2_4 <= 29.4574468085106
 r_32: + xp_2_1 <= 30
 r_33: + xp_11_3 + xp_2_2 <= 30
 r_34: + xp_19_4 + xp_19_3 + xp_2_3 <= 30
 r_35: 0 xp_0_0 <= 30
 r_36: + xp_9_0 <= 28.8106343283582
 r_37: + xp_21_1 + xp_13_1 + xp_8_1 + xp_0_5 <= 29.4574468085106
 r_38: + xp_1_1 <= 30
 r_39: + xp_17_5 + xp_17_4 + xp_3_2 + xp_0_3 <= 30
 r_40: + xp_0_2 <= 27.5681198910082
 r_41: + xp_12_0 + xp_2_4 <= 29.4574468085106
 r_42: + xp_21_1 <= 29.4574468085106
 r_43: + xp_22_3 + xp_16_0 <= 29.4574468085106
 r_44: + xp_23_5 + xp_23_4 + xp_23_3 + xp_23_2 + xp_23_1 + xp_22_4
 + xp_16_1 <= 29.4574468085106
 r_45: + xp_17_3 + xp_3_3 + xp_3_1 <= 29.4574468085106
 r_46: + xp_18_3 + xp_0_6 + xp_0_5 + xp_0_4 <= 27.5681198910082
 r_47: + xp_22_6 + xp_22_4 + xp_16_1 + xp_13_1 <= 30
 r_48: + xp_13_0 <= 29.4574468085106
 r_49: + xp_17_1 <= 30
 r_50: 0 xp_0_0 <= 27.5681198910082
 r_51: + xp_8_1 + xp_1_1 <= 30
 r_52: + xp_8_0 <= 29.4574468085106
 r_53: + xp_1_0 <= 30
 r_54: + xp_18_4 + xp_0_3 <= 27.5681198910082
 r_55: 0 xp_0_0 <= 30
 r_56: 0 xp_0_0 <= 30
 r_57: + xp_22_1 <= 27.5681198910082
 r_58: + xp_22_5 + xp_5_0 <= 27.5681198910082
 r_59: + xp_22_0 + xp_17_5 <= 27.5681198910082
 r_60: + xp_23_1 + xp_22_4 + xp_6_0 <= 27.5681198910082
 r_61: + xp_23_0 + xp_22_6 + xp_17_1 <= 27.5681198910082
 r_62: + xp_17_0 <= 27.5681198910082
 r_63: + xp_23_5 + xp_23_3 + xp_17_4 + xp_17_3 + xp_17_2 + xp_11_2
 + xp_6_2 + xp_5_2 <= 27.5681198910082
 r_64: + xp_23_4 + xp_23_2 + xp_22_3 + xp_22_2 + xp_6_1 + xp_5_1
 <= 27.5681198910082
 r_65: + xp_20_1 + xp_19_2 + xp_14_1 + xp_7_1 + xp_2_1 + xp_0_4
 <= 28.8106343283582
 r_66: + xp_20_2 + xp_19_3 + xp_7_0 <= 30
 r_67: + xp_20_3 + xp_19_1 + xp_10_0 <= 30
 r_68: + xp_20_0 <= 30

Bounds
 0 <= xp_0_0 <= 27.8737091347654
 0 <= xp_0_1 <= 10.8229523842122
 0 <= xp_0_2 <= 12.1229351357627
 0 <= xp_0_3 <= 3.35572947182832
 0 <= xp_0_4 <= 1.0278733601389
 0 <= xp_0_5 <= 3.35572947182832
 0 <= xp_0_6 <= 3.35572947182832
 0 <= xp_1_0 <= 20.6886091105371
 0 <= xp_1_1 <= 13.9771501668804
 0 <= xp_2_0 <= 21.9684306394208
 0 <= xp_2_1 <= 0.917026904225468
 0 <= xp_2_2 <= 7.6284858478821
 0 <= xp_2_3 <= 2.7510807126764
 0 <= xp_2_4 <= 0.917026904225468
 0 <= xp_3_0 <= 24.7195247750151
 0 <= xp_3_1 <= 5.81456641626213
 0 <= xp_3_2 <= 0.614709236108455
 0 <= xp_3_3 <= 0.614709236108455
 0 <= xp_4_0 <= 25.7977743459851
 0 <= xp_5_0 <= 19.3483307594888
 0 <= xp_5_1 <= 3.22472179324814
 0 <= xp_5_2 <= 3.22472179324814
 0 <= xp_6_0 <= 17.4134976835399
 0 <= xp_6_1 <= 2.90224961392332
 0 <= xp_6_2 <= 2.90224961392332
 0 <= xp_7_0 <= 16.6879352800591
 0 <= xp_7_1 <= 5.56264509335304
 0 <= xp_8_0 <= 17.4941157283711
 0 <= xp_8_1 <= 2.49915938976731
 0 <= xp_9_0 <= 18.5421503111768
 0 <= xp_10_0 <= 18.5421503111768
 0 <= xp_11_0 <= 23.4901063027982
 0 <= xp_11_1 <= 10.0671884154849
 0 <= xp_11_2 <= 6.71145894365663
 0 <= xp_11_3 <= 13.4229178873133
 0 <= xp_12_0 <= 17.4134976835399
 0 <= xp_13_0 <= 14.8135657377336
 0 <= xp_13_1 <= 2.11622367681909
 0 <= xp_14_0 <= 10.0772556039004
 0 <= xp_14_1 <= 6.04635336234026
 0 <= xp_15_0 <= 15.9623728765783
 0 <= xp_16_0 <= 13.4027499531876
 0 <= xp_16_1 <= 1.91467856474108
 0 <= xp_17_0 <= 27.9845555906789
 0 <= xp_17_1 <= 2.24722464394032
 0 <= xp_17_2 <= 2.24722464394032
 0 <= xp_17_3 <= 2.24722464394032
 0 <= xp_17_4 <= 3.35572947182832
 0 <= xp_17_5 <= 6.74167393182097
 0 <= xp_18_0 <= 22.7947588874817
 0 <= xp_18_1 <= 4.01074101889343
 0 <= xp_18_2 <= 12.0725589249317
 0 <= xp_18_3 <= 2.00537050944671
 0 <= xp_18_4 <= 2.00537050944671
 0 <= xp_19_0 <= 28.7907427504498
 0 <= xp_19_1 <= 3.88981395164662
 0 <= xp_19_2 <= 3.88981395164662
 0 <= xp_19_3 <= 3.88981395164662
 0 <= xp_19_4 <= 1.94490697582331
 0 <= xp_20_0 <= 27.1783751423668
 0 <= xp_20_1 <= 7.04399831139693
 0 <= xp_20_2 <= 5.53240325935292
 0 <= xp_20_3 <= 1.84413441978431
 0 <= xp_21_0 <= 26.7349758957952
 0 <= xp_21_1 <= 8.22303386132381
 0 <= xp_21_2 <= 3.244869592997
 0 <= xp_21_3 <= 1.6224347964985
 0 <= xp_22_0 <= 19.6204267279826
 0 <= xp_22_1 <= 1.42088968442049
 0 <= xp_22_2 <= 2.84177936884098
 0 <= xp_22_3 <= 1.42088968442049
 0 <= xp_22_4 <= 3.35572947182832
 0 <= xp_22_5 <= 8.13234862807712
 0 <= xp_22_6 <= 1.42088968442049
 0 <= xp_23_0 <= 26.3318856716392
 0 <= xp_23_1 <= 6.19750884066929
 0 <= xp_23_2 <= 1.42088968442049
 0 <= xp_23_3 <= 1.42088968442049
 0 <= xp_23_4 <= 1.42088968442049
 0 <= xp_23_5 <= 1.42088968442049

End
